Route #1: 28 72 39 67 23 75 73 40 53 87 57 41 22 56 74 93 17 60 48 89 
Route #2: 5 83 45 82 47 36 64 11 19 62 88 7 8 18 90 49 46 10 20 66 35 32 70 1 
Route #3: 33 65 63 31 69 27 52 98 61 16 44 38 86 85 99 84 6 94 96 97 37 43 91 100 13 58 
Route #4: 95 59 92 14 42 15 2 21 12 29 76 30 71 9 51 81 79 78 34 50 3 68 26 54 4 55 25 24 80 77 
Objective: 83670.8
